n=8;
hearts=60;
clubs=25;
spades=27;
diamonds=64;
blocked=14;
m=array2d(1..n, 1..n,[
	5,4,4,2,_,2,1,_,
	5,_,5,_,4,1,_,4,
	_,_,5,_,5,_,2,_,
	1,_,3,_,_,_,_,2,
	_,_,_,_,2,5,_,2,
	5,5,_,5,_,2,_,5,
	5,_,_,4,_,1,_,5,
	4,4,2,5,_,5,_,_
]);
